# Solution for model GasLib-40
# Objective value = 1.3521100664400562e+01
loadshed[innode_1] 0
loadshed[innode_2] 0
loadshed[innode_3] 0
loadshed[innode_4] 0
loadshed[innode_5] 0
loadshed[innode_6] 0
loadshed[innode_7] 0
loadshed[innode_8] 0
loadshed[source_1] -1.5211315758114918e-01
loadshed[source_2] 1.2540251859115337e-02
loadshed[source_3] 2.2510062352009608e-01
loadshed[sink_1] 0
loadshed[sink_2] 0
loadshed[sink_3] 0
loadshed[sink_4] 0
loadshed[sink_5] 0
loadshed[sink_6] 0
loadshed[sink_7] 0
loadshed[sink_8] 0
loadshed[sink_9] 0
loadshed[sink_10] 0
loadshed[sink_11] 0
loadshed[sink_12] 8.2676793871493870e-01
loadshed[sink_13] 0
loadshed[sink_14] 0
loadshed[sink_15] 0
loadshed[sink_16] 0
loadshed[sink_17] 0
loadshed[sink_18] 0
loadshed[sink_19] 0
loadshed[sink_20] 0
loadshed[sink_21] 0
loadshed[sink_22] 0
loadshed[sink_23] 0
loadshed[sink_24] 0
loadshed[sink_25] 0
loadshed[sink_26] 0
loadshed[sink_27] 0
loadshed[sink_28] 0
loadshed[sink_29] 0
flow[source_1,sink_3] 1.8213788911343653e+02
flow[innode_1,sink_16] 1.6354166666666970e+01
flow[innode_6,sink_13] -8.0248910108678757e+00
flow[sink_13,sink_14] -2.4379057677534544e+01
flow[sink_14,sink_10] -4.0733224344201211e+01
flow[sink_25,sink_26] 2.3179139933560120e+02
flow[sink_26,sink_9] 1.3172444463688868e+02
flow[sink_9,sink_18] 1.1537027797022202e+02
flow[sink_26,sink_4] 8.3712788032045864e+01
flow[sink_4,sink_20] 0
flow[sink_18,sink_6] 9.9016111303555348e+01
flow[sink_25,innode_8] -1.4942955578010017e+02
flow[sink_6,sink_7] 4.9953611303554680e+01
flow[sink_6,sink_22] 3.2708333333333641e+01
flow[sink_7,sink_24] 3.5541399335599444e+01
flow[sink_22,sink_1] 1.6354166666666970e+01
flow[sink_24,sink_21] 1.9187232668932776e+01
flow[sink_21,sink_12] 2.8330660022661078e+00
flow[sink_7,sink_5] -1.9419546987109015e+00
flow[sink_5,sink_17] -1.8296121365377530e+01
flow[sink_17,sink_4] -6.7358621365379349e+01
flow[sink_17,sink_8] 3.2708333333334949e+01
flow[sink_3,sink_23] 16.3541666666697
flow[sink_8,sink_20] 1.6354166666668277e+01
flow[sink_25,sink_20] 0
flow[sink_25,sink_15] -9.0691119211299025e+01
flow[sink_15,sink_29] -6.0030372968388427e+01
flow[sink_29,sink_28] 1.6354166666667879e+01
flow[sink_29,sink_2] 6.3369079576243941e+01
flow[sink_2,sink_15] 4.7014912909577276e+01
flow[sink_29,innode_7] -1.5610778587796693e+02
flow[innode_4,sink_19] 4.7625063444764322e+01
flow[sink_19,innode_3] 43.8199344524242
flow[innode_4,innode_5] 7.4878994232770481e+01
flow[sink_27,innode_5] -7.4878994232770481e+01
flow[sink_27,sink_19] 5.8524827566103816e+01
flow[sink_10,sink_11] 3.2708333333333641e+01
flow[sink_10,innode_2] -4.5975789891777318e+01
flow[sink_10,innode_3] -43.8199344524242
flow[innode_6,sink_25] 8.0248910108678757e+00
flow[sink_11,innode_1] 1.6354166666666970e+01
flow[sink_19,innode_2] 4.5975789891777318e+01
flow[source_3,innode_4] 1.2250405767753480e+02
flow[source_2,innode_7] 1.5610778587796693e+02
flow[sink_3,innode_8] 1.4942955578010017e+02
pressure[innode_1] 7.6502125640884046e+01
pressure[innode_2] 79.0838373304993
pressure[innode_3] 78.9868030477237
pressure[innode_4] 81.01325
pressure[innode_5] 80.9617442793851
pressure[innode_6] 74.6393343489913
pressure[innode_7] 81.01325
pressure[innode_8] 8.0404432615889391e+01
pressure[source_1] 81.01325
pressure[source_2] 81.01325
pressure[source_3] 81.01325
pressure[sink_1] 4.1510811122946720e+01
pressure[sink_2] 7.5232767977302714e+01
pressure[sink_3] 8.0404432615889391e+01
pressure[sink_4] 4.7670941688563147e+01
pressure[sink_5] 4.3733788494609705e+01
pressure[sink_6] 4.3611888733334091e+01
pressure[sink_7] 4.2926144721524018e+01
pressure[sink_8] 4.3862546897339449e+01
pressure[sink_9] 5.0430354234374008e+01
pressure[sink_10] 7.6653826948487591e+01
pressure[sink_11] 7.6502125640884046e+01
pressure[sink_12] 1.01325
pressure[sink_13] 7.4683574232050347e+01
pressure[sink_14] 7.4727202632400832e+01
pressure[sink_15] 7.5079274648572849e+01
pressure[sink_16] 7.5480475806066366e+01
pressure[sink_17] 4.5096717288166637e+01
pressure[sink_18] 4.6255913714845285e+01
pressure[sink_19] 79.0838373304993
pressure[sink_20] 4.2722891473751162e+01
pressure[sink_21] 2.0214099379125554e+00
pressure[sink_22] 4.2574580265301726e+01
pressure[sink_23] 80.2397146042296
pressure[sink_24] 2.2338907126557390e+00
pressure[sink_25] 74.6393343489913
pressure[sink_26] 5.8314402217324890e+01
pressure[sink_27] 8.0340386988757260e+01
pressure[sink_28] 7.6542696005695774e+01
pressure[sink_29] 7.6837978279312949e+01
interdiction[source_1,sink_3] 0
interdiction[innode_1,sink_16] 0
interdiction[innode_6,sink_13] 0
interdiction[sink_13,sink_14] 0
interdiction[sink_14,sink_10] 0
interdiction[sink_25,sink_26] 0
interdiction[sink_26,sink_9] 0
interdiction[sink_9,sink_18] 0
interdiction[sink_26,sink_4] 0
interdiction[sink_4,sink_20] 1
interdiction[sink_18,sink_6] 0
interdiction[sink_25,innode_8] 0
interdiction[sink_6,sink_7] 0
interdiction[sink_6,sink_22] 0
interdiction[sink_7,sink_24] 0
interdiction[sink_22,sink_1] 0
interdiction[sink_24,sink_21] 0
interdiction[sink_21,sink_12] 0
interdiction[sink_7,sink_5] 0
interdiction[sink_5,sink_17] 0
interdiction[sink_17,sink_4] 0
interdiction[sink_17,sink_8] 0
interdiction[sink_3,sink_23] 0
interdiction[sink_8,sink_20] 0
interdiction[sink_25,sink_20] 1
interdiction[sink_25,sink_15] 0
interdiction[sink_15,sink_29] 0
interdiction[sink_29,sink_28] 0
interdiction[sink_29,sink_2] 0
interdiction[sink_2,sink_15] 0
interdiction[sink_29,innode_7] 0
interdiction[innode_4,sink_19] 0
interdiction[sink_19,innode_3] 0
interdiction[innode_4,innode_5] 0
interdiction[sink_27,innode_5] 0
interdiction[sink_27,sink_19] 0
interdiction[sink_10,sink_11] 0
interdiction[sink_10,innode_2] 0
interdiction[sink_10,innode_3] 0
interdiction[innode_6,sink_25] 0
interdiction[sink_11,innode_1] 0
interdiction[sink_19,innode_2] 0
interdiction[source_3,innode_4] 0
interdiction[source_2,innode_7] 0
interdiction[sink_3,innode_8] 0
WCcheckFlow[source_1,sink_3] 39
WCcheckFlow[innode_1,sink_16] 1
WCcheckFlow[innode_6,sink_13] 13
WCcheckFlow[sink_13,sink_14] 12
WCcheckFlow[sink_14,sink_10] 11
WCcheckFlow[sink_25,sink_26] 15
WCcheckFlow[sink_26,sink_9] 13
WCcheckFlow[sink_9,sink_18] 12
WCcheckFlow[sink_26,sink_4] 1
WCcheckFlow[sink_4,sink_20] 0
WCcheckFlow[sink_18,sink_6] 11
WCcheckFlow[sink_25,innode_8] -36
WCcheckFlow[sink_6,sink_7] 8
WCcheckFlow[sink_6,sink_22] 2
WCcheckFlow[sink_7,sink_24] 3
WCcheckFlow[sink_22,sink_1] 1
WCcheckFlow[sink_24,sink_21] 2
WCcheckFlow[sink_21,sink_12] 1
WCcheckFlow[sink_7,sink_5] 4
WCcheckFlow[sink_5,sink_17] 3
WCcheckFlow[sink_17,sink_4] 0
WCcheckFlow[sink_17,sink_8] 2
WCcheckFlow[sink_3,sink_23] 1
WCcheckFlow[sink_8,sink_20] 1
WCcheckFlow[sink_25,sink_20] 0
WCcheckFlow[sink_25,sink_15] 6
WCcheckFlow[sink_15,sink_29] 5
WCcheckFlow[sink_29,sink_28] 1
WCcheckFlow[sink_29,sink_2] 1
WCcheckFlow[sink_2,sink_15] 0
WCcheckFlow[sink_29,innode_7] 2
WCcheckFlow[innode_4,sink_19] -4
WCcheckFlow[sink_19,innode_3] -5
WCcheckFlow[innode_4,innode_5] 2
WCcheckFlow[sink_27,innode_5] -1
WCcheckFlow[sink_27,sink_19] 0
WCcheckFlow[sink_10,sink_11] 3
WCcheckFlow[sink_10,innode_2] 1
WCcheckFlow[sink_10,innode_3] 6
WCcheckFlow[innode_6,sink_25] -14
WCcheckFlow[sink_11,innode_1] 2
WCcheckFlow[sink_19,innode_2] 0
WCcheckFlow[source_3,innode_4] -1
WCcheckFlow[source_2,innode_7] -1
WCcheckFlow[sink_3,innode_8] 37
